8 8
  0	23	1	90	2	49	3	95	4	65	5	6	6	46	7	41	
  0	67	1	55	2	73	3	44	4	29	5	28	6	70	7	54	
  0	47	1	15	2	88	3	3	4	16	5	89	6	13	7	47	
  0	79	1	11	2	60	3	5	4	47	5	89	6	47	7	38	
  0	11	1	73	2	46	3	64	4	39	5	14	6	70	7	50	
  0	92	1	51	2	52	3	90	4	76	5	42	6	7	7	92	
  0	9	1	12	2	58	3	31	4	40	5	70	6	5	7	3	
  0	7	1	36	2	6	3	85	4	81	5	86	6	44	7	59	
